
domSetOfBlockInFunction = array1d(allBlocksInFunction, [{0},{1,0},{2,3,0},{3,0},{4,0}]);

execFrequencyOfBlockInFunction = array1d(allBlocksInFunction, [16384,16384,8192,16384,16384]);

defEdgesForBlockInFunction = array1d(allBlocksInFunction, [{32},{14},{31},{},{}]);

entryBlockOfFunction = 0;

funLocDomain = [|1, 1, 33, |0, 1, 33, |];

numBlocksInFunction = 5;

numDataInFunction = 35;

numOperationsInFunction = 34;

statesInFunction = [];

inBlock = [|4, 0, |5, 0, |6, 0, |7, 0, |8, 0, |9, 0, |36, 2, |37, 3, |38, 4, |39, 1, |];

inBlockSucc = [|1, 2, 1, |2, 3, 2, |3, 4, 1, |34, 0, 3, |35, 0, 4, |];

locDomain = locDomain = locDomain = locDomain = [|24, 26, 0, 31, |24, 27, 0, 31, |24, 9, 1, 31, |25, 26, 0, 31, |25, 27, 0, 31, |... ]; // array too long to display, dimensions: (30)
 // array too long to display, dimensions: (297)


applyDefDomUseConstraintForMatch = array1d(allMatches, applyDefDomUseConstraintForMatch = [false,true,true,true,true,true,true,true,true,true,true,true,true,true,true,true... ] // array too long to display, dimensions: (68)
);

codeSizeOfMatch = array1d(allMatches, codeSizeOfMatch = [0,0,0,0,0,0,0,0,0,0,0,0,0,0,0,0,0,0,0,0,0,0,0,0,4,4,4,4,4,4,4,12,12,4,4,4,4,4,4,... ] // array too long to display, dimensions: (68)
);

consumedBlocksInMatch = array1d(allMatches, consumedBlocksInMatch = [{},{},{},{},{},{},{},{},{},{},{},{},{},{},{},{},{},{},{},{},{},{},{},{},{},{},{}... ] // array too long to display, dimensions: (68)
);

dataDefinedByMatch = array1d(allMatches, dataDefinedByMatch = [{14},{},{},{},{34},{0},{1},{8},{10},{13},{20},{22},{23},{15},{16},{17},{18},{31}... ] // array too long to display, dimensions: (71)
);

dataUsedByMatch = array1d(allMatches, dataUsedByMatch = [{31,32},{},{},{},{},{},{},{},{},{},{2},{3},{4},{0},{0},{1},{1},{12},{14},{5},{6}... ] // array too long to display, dimensions: (82)
);

entryBlockOfMatch = array1d(allMatches, entryBlockOfMatch = [{},{2},{3},{4},{0},{0},{0},{0},{0},{0},{},{},{},{},{},{},{},{},{},{},{},{},{},{}... ] // array too long to display, dimensions: (68)
);

latencyOfMatch = array1d(allMatches, latencyOfMatch = [0,0,0,0,0,0,0,0,0,0,0,0,0,0,0,0,0,0,0,0,0,0,0,0,1,1,1,17,1,1,1,3,3,1,1,1,1,1,1,2... ] // array too long to display, dimensions: (68)
);

nonCopyMatches = {0,1,2,3,4,5,6,7,8,9,24,25,26,27,28,29,30,31,32,33,34,35,36,37,38,39,65,66,67};

operationsCoveredByMatch = array1d(allMatches, operationsCoveredByMatch = [{9},{11},{32},{33},{},{},{},{},{},{},{18},{20},{21},{13},{14},{15},{16},{29},{31... ] // array too long to display, dimensions: (71)
);

spannedBlocksInMatch = array1d(allMatches, spannedBlocksInMatch = [{},{2,1},{3,2},{4,1},{0},{0},{0},{0},{0},{0},{},{},{},{},{},{},{},{},{},{},{},{}... ] // array too long to display, dimensions: (78)
);

numLocations = 34;

numMatches = 68;

sameLoc = sameLoc = [|0, 31, 32, |0, 32, 14, |10, 2, 20, |11, 3, 22, |12, 4, 23, |13, 0, 15, |14, 0, ... ]; // array too long to display, dimensions: (49)


